Maximize
  9.6734753880994503e-04 Z_320_0_0 + 0.00205497975055808 Z_320_0_1
   + 0.8321105184805822 Z_320_0_2 + 0.00434417583721584 Z_320_0_3
   + 0.060522978392834 Z_320_0_4 + 0.0339456716211342 Z_320_3_0
   + 0.00498908398907695 Z_320_3_1 + 0.0122840208170403 Z_320_3_2
   + 0.1075368788644231 Z_320_3_3 + 0.7412443447083256 Z_320_3_4
Subject To
 constraint1_3200: Z_320_0_0 + Z_320_0_1 + Z_320_0_2 + Z_320_0_3
   + Z_320_0_4 <= 1
 constraint1_3203: Z_320_3_0 + Z_320_3_1 + Z_320_3_2 + Z_320_3_3
   + Z_320_3_4 <= 1
 constraint2_3200: Z_320_0_0 + Z_320_3_0 <= 1
 constraint2_3201: Z_320_0_1 + Z_320_3_1 <= 1
 constraint2_3202: Z_320_0_2 + Z_320_3_2 <= 1
 constraint2_3203: Z_320_0_3 + Z_320_3_3 <= 1
Bounds
Binaries
 Z_320_0_0 Z_320_0_1 Z_320_0_2 Z_320_0_3 Z_320_0_4 Z_320_3_0 Z_320_3_1
 Z_320_3_2 Z_320_3_3 Z_320_3_4
End
